c A SAT instance generated from a 3-CNF formula that had 20 clauses and 10 variables
p cnf 10 20
8 -7 2 0
-9 5 7 0
5 6 -7 0
3 5 -9 0
-2 -4 9 0
-4 -2 -10 0
-4 3 -8 0
-6 -2 -1 0
-5 -2 -1 0
-5 -3 -8 0
5 -8 1 0
5 -1 -4 0
-4 7 10 0
4 3 5 0
10 -8 -1 0
-1 5 4 0
6 5 -8 0
-5 -1 2 0
-4 -5 -1 0
-1 -2 4 0
